# dyn_alloc_sce
baseline focus_on_high_profit_grounds area_monthly_closure TechCreeping3Per EffortMinControl
# dyn_pop_sce
baseline
# biolsce
1
# fleetsce
1
# Frequency to apply growth (0:daily; 1:weekly; 2:monthly; 3:quarterly; 4:semester)
3
# Frequency to redispatch the pop (0:daily; 1:weekly; 2:monthly; 3:quarterly; 4:semester)
3
# a_graph
20
# nrow_coord
18101
# nrow_graph
104574
# a_port
17924
# grid res km
3
# is_individual_vessel_quotas
0
#  check all stocks before going fishing (otherwise, explicit pops only)
0
# Go Fishing DTree
GoFishing_Adriatic.dt.csv
# Choose Ground DTree

# Start Fishing DTree

# Change Ground DTree

# Stop Fishing DTree
StopFishing_Adriatic_tree.dt.csv
# Change Port DTree

# Use Dtrees
1
#tariff_pop

#req_update_tariff_code

#arbitrary_breaks_for_tariff

#total_amount_credited

#tariff_annual_

# banned metiers
0 2
